NAME : portcgen-27-22
COMMENT : portcgen N=27, seed=22
TYPE : TSP
DIMENSION : 27
EDGE_WEIGHT_TYPE : EUC_2D
NODE_COORD_SECTION
1 17405 -147892
2 -141251 -21094
3 66011 335723
4 -41965 -67548
5 10544 309528
6 -134457 44047
7 125083 -155684
8 114301 -99267
9 -102129 397196
10 306844 15571
11 -145057 316643
12 -57890 -207495
13 313136 157288
14 -205690 -103676
15 122870 111873
16 112618 28632
17 187680 98517
18 216727 58813
19 15681 126996
20 32884 -269621
21 -204618 -28625
22 -252310 -374662
23 -6620 86099
24 104908 -20559
25 -70459 83463
26 -240675 196234
27 2159 -291723
